NAME          
ROWS
 N  OBJ
 L  c1
 L  c2
 L  c3
COLUMNS
    MARKER    'MARKER'                 'INTORG'
    x[1]      c1        496
    x[1]      c2        576
    x[1]      c3        700
    x[1]      OBJ       -643
    x[2]      c1        320
    x[2]      c2        377
    x[2]      c3        260
    x[2]      OBJ       -973
    x[3]      c1        58
    x[3]      c2        717
    x[3]      c3        572
    x[3]      OBJ       -691
    x[4]      c1        269
    x[4]      c2        73
    x[4]      c3        937
    x[4]      OBJ       -83
    x[5]      c1        2
    x[5]      c2        507
    x[5]      c3        36
    x[5]      OBJ       -3
    x[6]      c1        326
    x[6]      c2        757
    x[6]      c3        506
    x[6]      OBJ       -386
    x[7]      c1        992
    x[7]      c2        993
    x[7]      c3        705
    x[7]      OBJ       -954
    x[8]      c1        351
    x[8]      c2        140
    x[8]      c3        85
    x[8]      OBJ       -243
    x[9]      c1        92
    x[9]      c2        492
    x[9]      c3        122
    x[9]      OBJ       -408
    x[10]     c1        99
    x[10]     c2        381
    x[10]     c3        706
    x[10]     OBJ       -433
    x[11]     c1        998
    x[11]     c2        618
    x[11]     c3        521
    x[11]     OBJ       -170
    x[12]     c1        735
    x[12]     c2        372
    x[12]     c3        677
    x[12]     OBJ       -402
    x[13]     c1        266
    x[13]     c2        716
    x[13]     c3        1
    x[13]     OBJ       -695
    x[14]     c1        2
    x[14]     c2        505
    x[14]     c3        71
    x[14]     OBJ       -124
    x[15]     c1        612
    x[15]     c2        93
    x[15]     c3        671
    x[15]     OBJ       -770
RHS
    rhs       c1        2809
    rhs       c2        3658
    rhs       c3        3285
RANGES
BOUNDS
 LO bounds    x[1]      0
 PL bounds    x[1]
 LO bounds    x[2]      0
 PL bounds    x[2]
 LO bounds    x[3]      0
 PL bounds    x[3]
 LO bounds    x[4]      0
 PL bounds    x[4]
 LO bounds    x[5]      0
 PL bounds    x[5]
 LO bounds    x[6]      0
 PL bounds    x[6]
 LO bounds    x[7]      0
 PL bounds    x[7]
 LO bounds    x[8]      0
 PL bounds    x[8]
 LO bounds    x[9]      0
 PL bounds    x[9]
 LO bounds    x[10]     0
 PL bounds    x[10]
 LO bounds    x[11]     0
 PL bounds    x[11]
 LO bounds    x[12]     0
 PL bounds    x[12]
 LO bounds    x[13]     0
 PL bounds    x[13]
 LO bounds    x[14]     0
 PL bounds    x[14]
 LO bounds    x[15]     0
 PL bounds    x[15]
ENDATA
